100
150
100
100
99
99
99
99
98
98
98
97
97
97
94
94
93
93
92
90
89
88
87
86
85
83
83
82
81
80
79
78
77
76
75
73
73
73
73
72
72
71
71
71
70
68
67
66
65
64
64
64
64
63
62
62
62
61
57
56
55
55
54
53
53
53
53
52
52
52
51
51
49
49
48
48
45
45
45
45
44
44
43
42
41
41
40
40
38
35
34
34
34
34
33
33
32
32
32
30
30
30
